92 67 31 29 28 30 71 72 38 40 44 42 61 55 88 53 10 13 97 58 48 20 24 66 
69 98 82 99 52 9 11 12 14 47 15 16 17 78 73 79 60 46 4 45 1 70 68 
83 22 21 23 25 77 75 59 87 74 86 57 65 
100 2 6 7 8 5 3 43 36 35 37 39 41 54 
95 84 85 63 51 76 18 19 49 64 62 50 34 27 26 32 33 89 56 91 80 
90 81 94 93 96 
